zaligvinder/models/DRE/data471/3123.smt2
(declare-fun x () String)

(assert (str.in.re x (re.++ (re.*  (re.union  (str.to.re "\x4e01") (re.union  (str.to.re "\x4e02") (re.union  (str.to.re "\x4e03") (re.union  (str.to.re "\x4e04") (re.union  (str.to.re "\x4e05") (re.union  (str.to.re "\x4e06") (re.union  (str.to.re "\x4e07") (re.union  (str.to.re "\x4e08") (re.union  (str.to.re "\x4e09") (re.union  (str.to.re "\x4e0a") (re.union  (str.to.re "\x4e0b") (re.union  (str.to.re "\x4e0c") (re.union  (str.to.re "\x4e0d") (re.union  (str.to.re "\x4e0e") (re.union  (str.to.re "\x4e0f") (re.union  (str.to.re "\x4e10") (re.union  (str.to.re "\x4e11") (re.union  (str.to.re "\x4e12") (re.union  (str.to.re "\x4e13") (re.union  (str.to.re "\x4e14") (re.union  (str.to.re "\x4e15") (re.union  (str.to.re "\x4e16") (re.union  (str.to.re "\x4e17")  (str.to.re "\x4e18")))))))))))))))))))))))) ) (re.++ (re.opt  (re.++  (str.to.re "\x4e19") (re.*  (re.union  (str.to.re "\x4e01") (re.union  (str.to.re "\x4e02") (re.union  (str.to.re "\x4e03") (re.union  (str.to.re "\x4e04") (re.union  (str.to.re "\x4e05") (re.union  (str.to.re "\x4e06") (re.union  (str.to.re "\x4e07") (re.union  (str.to.re "\x4e08") (re.union  (str.to.re "\x4e09") (re.union  (str.to.re "\x4e0a") (re.union  (str.to.re "\x4e0b") (re.union  (str.to.re "\x4e0c") (re.union  (str.to.re "\x4e0d") (re.union  (str.to.re "\x4e0e") (re.union  (str.to.re "\x4e0f") (re.union  (str.to.re "\x4e10") (re.union  (str.to.re "\x4e11") (re.union  (str.to.re "\x4e12") (re.union  (str.to.re "\x4e13") (re.union  (str.to.re "\x4e14") (re.union  (str.to.re "\x4e15") (re.union  (str.to.re "\x4e16") (re.union  (str.to.re "\x4e17")  (str.to.re "\x4e18")))))))))))))))))))))))) )) ) (re.++  (re.union  (str.to.re "\x4e1a") (re.union  (str.to.re "\x4e1b")  (str.to.re "\x4e1c"))) (re.++ (re.*  (re.union  (str.to.re "\x4e1a") (re.union  (str.to.re "\x4e1b") (re.union  (str.to.re "\x4e1c") (re.union  (str.to.re "\x4e01") (re.union  (str.to.re "\x4e02") (re.union  (str.to.re "\x4e03") (re.union  (str.to.re "\x4e04") (re.union  (str.to.re "\x4e05") (re.union  (str.to.re "\x4e06") (re.union  (str.to.re "\x4e07") (re.union  (str.to.re "\x4e08") (re.union  (str.to.re "\x4e09") (re.union  (str.to.re "\x4e0a") (re.union  (str.to.re "\x4e0b") (re.union  (str.to.re "\x4e0c") (re.union  (str.to.re "\x4e0d") (re.union  (str.to.re "\x4e0e") (re.union  (str.to.re "\x4e0f") (re.union  (str.to.re "\x4e10") (re.union  (str.to.re "\x4e11") (re.union  (str.to.re "\x4e12") (re.union  (str.to.re "\x4e13") (re.union  (str.to.re "\x4e14") (re.union  (str.to.re "\x4e15") (re.union  (str.to.re "\x4e16") (re.union  (str.to.re "\x4e17")  (str.to.re "\x4e18"))))))))))))))))))))))))))) ) (re.opt  (re.++  (str.to.re "\x4e1d") (re.*  (re.union  (str.to.re "\x4e01") (re.union  (str.to.re "\x4e02") (re.union  (str.to.re "\x4e03") (re.union  (str.to.re "\x4e04") (re.union  (str.to.re "\x4e05") (re.union  (str.to.re "\x4e06") (re.union  (str.to.re "\x4e07") (re.union  (str.to.re "\x4e08") (re.union  (str.to.re "\x4e09") (re.union  (str.to.re "\x4e0a") (re.union  (str.to.re "\x4e0b") (re.union  (str.to.re "\x4e0c") (re.union  (str.to.re "\x4e0d") (re.union  (str.to.re "\x4e0e") (re.union  (str.to.re "\x4e0f") (re.union  (str.to.re "\x4e10") (re.union  (str.to.re "\x4e11") (re.union  (str.to.re "\x4e12") (re.union  (str.to.re "\x4e13") (re.union  (str.to.re "\x4e14") (re.union  (str.to.re "\x4e15") (re.union  (str.to.re "\x4e16") (re.union  (str.to.re "\x4e17")  (str.to.re "\x4e18")))))))))))))))))))))))) )) )))))))
(assert (str.in.re x (re.++ (re.*  (re.union  (str.to.re "\x4e01") (re.union  (str.to.re "\x4e02") (re.union  (str.to.re "\x4e03") (re.union  (str.to.re "\x4e04") (re.union  (str.to.re "\x4e05") (re.union  (str.to.re "\x4e06") (re.union  (str.to.re "\x4e07") (re.union  (str.to.re "\x4e08") (re.union  (str.to.re "\x4e09") (re.union  (str.to.re "\x4e0a") (re.union  (str.to.re "\x4e0b") (re.union  (str.to.re "\x4e0c") (re.union  (str.to.re "\x4e0d") (re.union  (str.to.re "\x4e0e") (re.union  (str.to.re "\x4e0f") (re.union  (str.to.re "\x4e10")  (str.to.re "\x4e11"))))))))))))))))) ) (re.++  (re.union  (re.++ (re.+  (re.++  (re.union  (str.to.re "\x4e12") (re.union  (str.to.re "\x4e13") (re.union  (str.to.re "\x4e14") (re.union  (str.to.re "\x4e15") (re.union  (str.to.re "\x4e16") (re.union  (str.to.re "\x4e17") (re.union  (str.to.re "\x4e18") (re.union  (str.to.re "\x4e19") (re.union  (str.to.re "\x4e1a") (re.union  (str.to.re "\x4e1b") (re.union  (str.to.re "\x4e1c") (re.union  (str.to.re "\x4e1d") (re.union  (str.to.re "\x4e1e")  (str.to.re "\x4e1f")))))))))))))) (re.*  (re.union  (str.to.re "\x4e0a") (re.union  (str.to.re "\x4e0b") (re.union  (str.to.re "\x4e0c") (re.union  (str.to.re "\x4e0d") (re.union  (str.to.re "\x4e0e") (re.union  (str.to.re "\x4e0f") (re.union  (str.to.re "\x4e10")  (str.to.re "\x4e11")))))))) )) ) (re.++ (re.*  (re.++  (str.to.re "\x4e20") (re.*  (re.union  (str.to.re "\x4e0a") (re.union  (str.to.re "\x4e0b") (re.union  (str.to.re "\x4e0c") (re.union  (str.to.re "\x4e0d") (re.union  (str.to.re "\x4e0e") (re.union  (str.to.re "\x4e0f") (re.union  (str.to.re "\x4e10")  (str.to.re "\x4e11")))))))) )) ) (re.opt  (re.union  (re.++  (str.to.re "\x4e21") (re.*  (re.union  (str.to.re "\x4e21") (re.union  (str.to.re "\x4e20") (re.union  (str.to.re "\x4e0a") (re.union  (str.to.re "\x4e0b") (re.union  (str.to.re "\x4e0c") (re.union  (str.to.re "\x4e0d") (re.union  (str.to.re "\x4e0e") (re.union  (str.to.re "\x4e0f") (re.union  (str.to.re "\x4e10")  (str.to.re "\x4e11")))))))))) )) (re.union  (re.++  (str.to.re "\x4e22") (re.*  (re.union  (str.to.re "\x4e22") (re.union  (str.to.re "\x4e20") (re.union  (str.to.re "\x4e0a") (re.union  (str.to.re "\x4e0b") (re.union  (str.to.re "\x4e0c") (re.union  (str.to.re "\x4e0d") (re.union  (str.to.re "\x4e0e") (re.union  (str.to.re "\x4e0f") (re.union  (str.to.re "\x4e10")  (str.to.re "\x4e11")))))))))) ))  (re.++  (str.to.re "\x4e23") (re.*  (re.union  (str.to.re "\x4e23") (re.union  (str.to.re "\x4e20") (re.union  (str.to.re "\x4e0a") (re.union  (str.to.re "\x4e0b") (re.union  (str.to.re "\x4e0c") (re.union  (str.to.re "\x4e0d") (re.union  (str.to.re "\x4e0e") (re.union  (str.to.re "\x4e0f") (re.union  (str.to.re "\x4e10")  (str.to.re "\x4e11")))))))))) )))) )))  (re.++ (re.*  (re.++  (str.to.re "\x4e20") (re.*  (re.union  (str.to.re "\x4e0a") (re.union  (str.to.re "\x4e0b") (re.union  (str.to.re "\x4e0c") (re.union  (str.to.re "\x4e0d") (re.union  (str.to.re "\x4e0e") (re.union  (str.to.re "\x4e0f") (re.union  (str.to.re "\x4e10")  (str.to.re "\x4e11")))))))) )) )  (re.union  (re.++  (str.to.re "\x4e21") (re.*  (re.union  (str.to.re "\x4e21") (re.union  (str.to.re "\x4e20") (re.union  (str.to.re "\x4e0a") (re.union  (str.to.re "\x4e0b") (re.union  (str.to.re "\x4e0c") (re.union  (str.to.re "\x4e0d") (re.union  (str.to.re "\x4e0e") (re.union  (str.to.re "\x4e0f") (re.union  (str.to.re "\x4e10")  (str.to.re "\x4e11")))))))))) )) (re.union  (re.++  (str.to.re "\x4e22") (re.*  (re.union  (str.to.re "\x4e22") (re.union  (str.to.re "\x4e20") (re.union  (str.to.re "\x4e0a") (re.union  (str.to.re "\x4e0b") (re.union  (str.to.re "\x4e0c") (re.union  (str.to.re "\x4e0d") (re.union  (str.to.re "\x4e0e") (re.union  (str.to.re "\x4e0f") (re.union  (str.to.re "\x4e10")  (str.to.re "\x4e11")))))))))) ))  (re.++  (str.to.re "\x4e23") (re.*  (re.union  (str.to.re "\x4e23") (re.union  (str.to.re "\x4e20") (re.union  (str.to.re "\x4e0a") (re.union  (str.to.re "\x4e0b") (re.union  (str.to.re "\x4e0c") (re.union  (str.to.re "\x4e0d") (re.union  (str.to.re "\x4e0e") (re.union  (str.to.re "\x4e0f") (re.union  (str.to.re "\x4e10")  (str.to.re "\x4e11")))))))))) )))))) (re.*  (re.++  (re.union  (str.to.re "\x4e02") (re.union  (str.to.re "\x4e24") (re.union  (str.to.re "\x4e05") (re.union  (str.to.re "\x4e08") (re.union  (str.to.re "\x4e09")  (str.to.re "\x4e25")))))) (re.*  (re.union  (str.to.re "\x4e0a") (re.union  (str.to.re "\x4e0b") (re.union  (str.to.re "\x4e0c") (re.union  (str.to.re "\x4e0d") (re.union  (str.to.re "\x4e0e") (re.union  (str.to.re "\x4e0f") (re.union  (str.to.re "\x4e10")  (str.to.re "\x4e11")))))))) )) )))))
(check-sat)
(get-model)