zaligvinder/models/DRE/data471/3123.txt
(丁-0|丂-1|七-2|丄-3|丅-4|丆-5|万-6|丈-7|三-8|上-9|下-10|丌-11|不-12|与-13|丏-14|丐-15|丑-16|丒-17|专-18|且-19|丕-20|世-21|丗-22|丘-23)*.(丙-24.(丁-25|丂-26|七-27|丄-28|丅-29|丆-30|万-31|丈-32|三-33|上-34|下-35|丌-36|不-37|与-38|丏-39|丐-40|丑-41|丒-42|专-43|且-44|丕-45|世-46|丗-47|丘-48)*)?.(业-49|丛-50|东-51).(业-52|丛-53|东-54|丁-55|丂-56|七-57|丄-58|丅-59|丆-60|万-61|丈-62|三-63|上-64|下-65|丌-66|不-67|与-68|丏-69|丐-70|丑-71|丒-72|专-73|且-74|丕-75|世-76|丗-77|丘-78)*.(丝-79.(丁-80|丂-81|七-82|丄-83|丅-84|丆-85|万-86|丈-87|三-88|上-89|下-90|丌-91|不-92|与-93|丏-94|丐-95|丑-96|丒-97|专-98|且-99|丕-100|世-101|丗-102|丘-103)*)?
(丁-0|丂-1|七-2|丄-3|丅-4|丆-5|万-6|丈-7|三-8|上-9|下-10|丌-11|不-12|与-13|丏-14|丐-15|丑-16)*.(((丒-17|专-18|且-19|丕-20|世-21|丗-22|丘-23|丙-24|业-25|丛-26|东-27|丝-28|丞-29|丟-30).(上-31|下-32|丌-33|不-34|与-35|丏-36|丐-37|丑-38)*)+.(丠-39.(上-40|下-41|丌-42|不-43|与-44|丏-45|丐-46|丑-47)*)*.(両-48.(両-49|丠-50|上-51|下-52|丌-53|不-54|与-55|丏-56|丐-57|丑-58)*|丢-59.(丢-60|丠-61|上-62|下-63|丌-64|不-65|与-66|丏-67|丐-68|丑-69)*|丣-70.(丣-71|丠-72|上-73|下-74|丌-75|不-76|与-77|丏-78|丐-79|丑-80)*)?|(丠-81.(上-82|下-83|丌-84|不-85|与-86|丏-87|丐-88|丑-89)*)*.(両-90.(両-91|丠-92|上-93|下-94|丌-95|不-96|与-97|丏-98|丐-99|丑-100)*|丢-101.(丢-102|丠-103|上-104|下-105|丌-106|不-107|与-108|丏-109|丐-110|丑-111)*|丣-112.(丣-113|丠-114|上-115|下-116|丌-117|不-118|与-119|丏-120|丐-121|丑-122)*)).((丂-123|两-124|丅-125|丈-126|三-127|严-128).(上-129|下-130|丌-131|不-132|与-133|丏-134|丐-135|丑-136)*)*
